Solver command line: []

Read LP format model from file /var/folders/2j/t8d8dcsn1tg5sc8l4kz4_4ch0000gn/T/tmppg49vet6.pyomo.lp
Reading time = 0.02 seconds
x1: 460 rows, 308 columns, 11312 nonzeros
Set parameter Threads to value 8
Set parameter NonConvex to value 2
Gurobi Optimizer version 12.0.1 build v12.0.1rc0 (mac64[x86] - Darwin 24.5.0 24F74)

CPU model: Intel(R) Core(TM) i7-9750H CPU @ 2.60GHz
Thread count: 6 physical cores, 12 logical processors, using up to 8 threads

Non-default parameters:
NonConvex  2
Threads  8

Optimize a model with 460 rows, 308 columns and 11312 nonzeros
Model fingerprint: 0xde669f03
Model has 1 quadratic constraint
Variable types: 158 continuous, 150 integer (150 binary)
Coefficient statistics:
  Matrix range     [3e-07, 1e+03]
  QMatrix range    [1e+00, 1e+00]
  Objective range  [1e+00, 1e+00]
  Bounds range     [1e+00, 1e+00]
  RHS range        [3e-03, 5e+03]
  QRHS range       [1e+04, 1e+04]
Presolve removed 51 rows and 37 columns
Presolve time: 0.05s
Presolved: 412 rows, 274 columns, 9292 nonzeros
Presolved model has 2 bilinear constraint(s)

Solving non-convex MIQCP

Variable types: 141 continuous, 133 integer (133 binary)

Root relaxation: objective 3.018144e+04, 296 iterations, 0.01 seconds (0.01 work units)

    Nodes    |    Current Node    |     Objective Bounds      |     Work
 Expl Unexpl |  Obj  Depth IntInf | Incumbent    BestBd   Gap | It/Node Time

     0     0 30181.4370    0   37          - 30181.4370      -     -    0s
     0     0 24828.9994    0   59          - 24828.9994      -     -    0s
     0     0 24733.1968    0   61          - 24733.1968      -     -    0s
     0     0 20272.0465    0   89          - 20272.0465      -     -    0s
     0     0 19534.5633    0   99          - 19534.5633      -     -    0s
     0     0 18526.3255    0   98          - 18526.3255      -     -    0s
     0     0 18370.8319    0  101          - 18370.8319      -     -    0s
H    0     0                    3508.0911979 15337.6454   337%     -    0s
H    0     0                    3508.0911987 15337.6454   337%     -    0s
     0     0 15124.2090    0   97 3508.09120 15124.2090   331%     -    0s
H    0     0                    3508.0911997 15107.5862   331%     -    0s
     0     0 15013.4408    0   92 3508.09120 15013.4408   328%     -    0s
     0     0 14745.4111    0   98 3508.09120 14745.4111   320%     -    0s
     0     0 14607.5170    0   99 3508.09120 14607.5170   316%     -    1s
     0     0 14500.2533    0   97 3508.09120 14500.2533   313%     -    1s
     0     0 14461.5337    0   98 3508.09120 14461.5337   312%     -    1s
     0     0 14406.5823    0   98 3508.09120 14406.5823   311%     -    1s
     0     0 13713.0113    0   95 3508.09120 13713.0113   291%     -    1s
     0     2 13713.0113    0   94 3508.09120 13713.0113   291%     -    1s
H  847   562                    3508.5089079 9110.19731   160%  49.5    2s
H 2137  1189                    3508.5218837 7234.32834   106%  45.0    3s
H 2148  1189                    3508.5232826 7234.32834   106%  45.0    3s
H 2169  1189                    3508.7858754 7234.32834   106%  44.8    3s
  2503  1285 6425.12775    9   64 3508.78588 6976.65875  98.8%  45.7    5s
  2715  1389 4792.45124   22   55 3508.78588 6976.65875  98.8%  50.2   10s

Cutting planes:
  Learned: 1
  Gomory: 3
  Cover: 11
  Implied bound: 9
  Projected implied bound: 37
  Clique: 3
  MIR: 62
  Flow cover: 54
  Inf proof: 1
  RLT: 17
  Relax-and-lift: 32
  BQP: 3

Explored 3552 nodes (189960 simplex iterations) in 11.37 seconds (8.76 work units)
Thread count was 8 (of 12 available processors)

Solution count 5: 3508.79 3508.52 3508.52 ... 3508.09

Solve interrupted
Best objective 3.508785875391e+03, best bound 6.976658754755e+03, gap 98.8340%

